46 36 402
36 15 679
15 16 556
16 52 739
52 25 874
25 31 299
31 27 4460
27 1 4123
1 33 7621
33 42 4807
42 11 1343
11 45 436
45 2 787
2 14 433
14 9 471
9 12 723
12 18 768
18 4 606
4 30 380
30 47 944
47 54 491
54 34 401
34 53 396
53 23 388
23 49 1461
49 26 560
26 55 397
55 28 487
28 6 404
6 3 385
3 43 1096
43 13 790
13 51 644
51 40 1042
40 7 1176
7 37 517
37 5 467
5 35 323
35 24 296
24 20 740
20 50 763
50 38 1180
38 8 368
8 44 383
44 32 676
32 41 362
41 19 1369
19 48 897
48 17 415
17 21 638
21 29 516
29 22 544
22 10 117
10 39 941
39 46 214
